p ocr 26 26 139
1 32
1 40
1 44
2 31
2 32
2 40
2 44
3 32
3 33
3 44
4 28
4 33
4 36
4 39
4 41
4 46
4 48
4 49
4 50
4 52
5 28
5 30
5 36
5 41
5 43
5 46
5 48
5 49
5 50
5 52
6 27
6 31
6 34
6 45
7 30
7 37
7 38
7 42
7 43
7 51
8 32
8 40
8 44
9 28
9 29
9 33
9 35
9 36
9 39
9 47
9 48
9 49
9 50
9 52
10 41
10 43
10 46
10 48
10 49
10 50
10 52
11 27
11 31
11 34
11 45
12 38
12 42
13 28
13 29
13 33
13 35
13 36
13 39
13 47
13 48
13 49
13 50
13 52
14 30
14 41
14 42
14 43
14 46
15 30
15 41
15 43
15 46
15 48
15 49
15 50
15 52
16 27
16 31
16 34
16 45
17 29
17 32
17 33
17 35
17 39
17 44
17 47
18 32
18 44
19 38
19 42
20 31
21 31
21 32
21 40
21 44
22 30
22 37
22 38
22 42
22 43
22 51
23 32
23 44
24 29
24 33
24 35
24 39
24 47
24 48
24 49
24 50
24 52
25 29
25 32
25 33
25 35
25 39
25 44
25 47
26 31
26 32
26 40
26 44